
Log started (V12.10.0.0) Fri Apr  9 00:25:41 2021


Problem 'asset.lp' read.
Read time = 0.00 sec. (0.12 ticks)
New value for default parallel thread count: 1
New value for time limit in seconds: 200
Version identifier: 12.10.0.0 | 2019-11-26 | 843d4de
CPXPARAM_Threads                                 1
CPXPARAM_TimeLimit                               200
Found incumbent of value -0.891858 after 0.00 sec. (0.05 ticks)
Tried aggregator 4 times.
MIP Presolve eliminated 639 rows and 409 columns.
MIP Presolve modified 1367 coefficients.
Aggregator did 222 substitutions.
Reduced MIP has 320 rows, 337 columns, and 1289 nonzeros.
Reduced MIP has 274 binaries, 39 generals, 0 SOSs, and 0 indicators.
Presolve time = 0.00 sec. (3.98 ticks)
Probing fixed 45 vars, tightened 19 bounds.
Probing time = 0.00 sec. (1.13 ticks)
Cover probing fixed 0 vars, tightened 15 bounds.
Tried aggregator 2 times.
MIP Presolve eliminated 110 rows and 91 columns.
MIP Presolve modified 88 coefficients.
Aggregator did 4 substitutions.
Reduced MIP has 206 rows, 239 columns, and 823 nonzeros.
Reduced MIP has 202 binaries, 15 generals, 0 SOSs, and 0 indicators.
Presolve time = 0.00 sec. (1.48 ticks)
Probing time = 0.00 sec. (0.81 ticks)
Cover probing fixed 0 vars, tightened 2 bounds.
Tried aggregator 1 time.
Detecting symmetries...
MIP Presolve modified 6 coefficients.
Reduced MIP has 206 rows, 239 columns, and 823 nonzeros.
Reduced MIP has 202 binaries, 15 generals, 0 SOSs, and 0 indicators.
Presolve time = 0.00 sec. (0.57 ticks)
Probing time = 0.00 sec. (0.81 ticks)
Clique table members: 744.
MIP emphasis: balance optimality and feasibility.
MIP search method: dynamic search.
Parallel mode: none, using 1 thread.
Root relaxation solution time = 0.00 sec. (1.18 ticks)

        Nodes                                         Cuts/
   Node  Left     Objective  IInf  Best Integer    Best Bound    ItCnt     Gap

*     0+    0                           -0.8919      249.7821              --- 
      0     0      105.6276    29       -0.8919      105.6276      132     --- 
      0     0      103.6834    29       -0.8919      Cuts: 52      168     --- 
      0     0      102.0604    29       -0.8919      Cuts: 46      213     --- 
*     0+    0                           80.5900      102.0604            26.64%
      0     0      101.6137    29       80.5900      Cuts: 27      256   26.09%
*     0+    0                           86.7410      101.6137            17.15%
      0     0      101.4557    29       86.7410      Cuts: 18      280   16.96%
      0     0      100.8042    29       86.7410      Cuts: 10      299   16.21%
*     0+    0                           88.2390      100.8042            14.24%
Detecting symmetries...
      0     0      100.1511    29       88.2390      Cuts: 40      323   13.50%
      0     0      100.0682    29       88.2390      Cuts: 20      344   13.41%
      0     0       99.9546    29       88.2390      Cuts: 14      368   13.28%
      0     0       99.8238    29       88.2390      Cuts: 20      397   13.13%
      0     0       99.6035    29       88.2390      Cuts: 26      432   12.88%
*     0+    0                           89.2806       99.6035            11.56%
      0     0       99.5988    29       89.2806      Cuts: 17      454   11.56%
*     0+    0                           92.4759       99.5988             7.70%
      0     0       99.5712    29       92.4759       Cuts: 7      469    7.67%
      0     0       99.3036    29       92.4759      Cuts: 17      490    7.38%
      0     0       99.2739    29       92.4759      Cuts: 17      504    7.35%
      0     0       99.2429    29       92.4759   ZeroHalf: 6      514    7.32%
      0     0       99.2376    29       92.4759       Cuts: 5      523    7.31%
Detecting symmetries...
      0     2       99.2376    63       92.4759       99.2314      523    7.31%
Elapsed time = 0.07 sec. (51.59 ticks, tree = 0.01 MB, solutions = 5)
*    10+    2                           92.4786       98.8966             6.94%

GUB cover cuts applied:  1
Cover cuts applied:  3
Implied bound cuts applied:  23
Flow cuts applied:  3
Mixed integer rounding cuts applied:  9
Zero-half cuts applied:  14
Lift and project cuts applied:  1

Root node processing (before b&c):
  Real time             =    0.07 sec. (51.64 ticks)
Sequential b&c:
  Real time             =    0.01 sec. (9.93 ticks)
                          ------------
Total (root+branch&cut) =    0.08 sec. (61.57 ticks)

Solution pool: 7 solutions saved.

MIP - Integer optimal, tolerance (0.0001/1e-06):  Objective =  9.2478632210e+01
Current MIP best bound =  9.2483998547e+01 (gap = 0.00536634, 0.01%)
Solution time =    0.08 sec.  Iterations = 1015  Nodes = 30 (4)
Deterministic time = 61.57 ticks  (786.86 ticks/sec)


Incumbent solution
Variable Name           Solution Value
F                           110.000000
f1                            0.911368
f2                           16.610000
y118                          1.000000
y94                           1.000000
y24                           1.000000
y149                          1.000000
y176                          1.000000
y150                          1.000000
y130                          1.000000
y168                          1.000000
s14                           6.000000
s50                           6.000000
s56                           6.000000
s57                           6.000000
s58                           6.000000
s61                           6.000000
s77                           6.000000
s85                           6.000000
s86                           6.000000
s107                          6.000000
s118                          6.279538
s121                          6.000000
s144                          6.000000
s94                           6.916784
s154                          6.080000
s112                          6.130000
s127                          6.180000
s24                           7.335356
s149                          6.609118
s181                          6.470000
s128                          6.580000
s92                           6.620000
s114                          6.670000
s176                          7.002901
s147                          6.770000
s150                          7.661186
s151                          6.800000
s103                          6.850000
s130                          7.813968
s12                           6.880000
s95                           6.880000
s168                          7.792033
s175                          7.000000
s153                          7.010000
s180                          7.010000
s35                           7.030000
s20                           7.050000
x108x176x1                    1.000000
x126x176x1                    1.000000
x160x168x1                    1.000000
x29x118x1                     1.000000
x108x94x2                     1.000000
x52x149x2                     2.000000
x126x94x2                     1.000000
x93x118x2                     1.000000
x160x130x3                    1.000000
x38x24x3                      2.000000
x118x168x1                    1.000000
x118x130x2                    1.000000
x94x0x2                       2.000000
x24x0x3                       2.000000
x149x150x2                    2.000000
x176x0x1                      2.000000
x150x0x2                      2.000000
x130x0x2                      1.000000
x130x0x3                      1.000000
x168x0x1                      2.000000
s108                          5.310172
z108z94z2                     1.000000
z108z176z1                    1.000000
z108z20z1                     1.000000
s52                           4.967396
z52z94z2                      1.000000
z52z149z2                     1.000000
z52z150z2                     1.000000
s126                          5.398392
z126z94z2                     1.000000
z126z176z1                    1.000000
z126z20z1                     1.000000
s160                          5.996767
z160z130z3                    1.000000
z160z168z1                    1.000000
s38                           5.840000
z38z24z3                      1.000000
s93                           4.464800
z93z118z2                     1.000000
z93z149z2                     1.000000
z93z150z2                     1.000000
s29                           4.652580
z29z118z1                     1.000000
z29z181z1                     1.000000
z29z176z1                     1.000000
z29z168z1                     1.000000
z29z175z1                     1.000000
z29z180z1                     1.000000
z29z20z1                      1.000000
z118z130z2                    1.000000
z118z168z1                    1.000000
z149z150z2                    1.000000
All other variables in the range 1-975 are 0.
